c instance by G2
c solution = 0110111000011000111110101
c Known solution cost is 1057 
p cnf 25 30
w 20 14 98 95 83 53 93 64 7 64 5 22 82 2 38 50 33 3 53 7 51 6 0 37 77
11 -25 19 0
18 -2 24 0
5 4 -20 0
-5 -2 21 0
15 -24 -18 0
-8 16 4 0
12 -19 14 0
-16 -21 -7 0
-25 13 -17 0
22 -2 6 0
-20 16 -11 0
-10 5 -18 0
-23 -22 -17 0
7 10 -3 0
14 -7 -9 0
-21 6 -10 0
-14 -19 9 0
12 8 -25 0
2 -23 -3 0
-21 20 9 0
-12 -17 25 0
16 -21 3 0
-12 -15 -2 0
-10 -23 11 0
-18 24 -1 0
18 19 -13 0
-13 -18 -4 0
17 -19 -23 0
22 23 -12 0
-13 -4 24 0
